
Gurobi 6.5.2 (win64) logging started 07/23/16 02:37:35


Gurobi 6.5.2 (win64) logging started 07/23/16 02:37:35

Optimize a model with 8066 rows, 1003 columns and 18227 nonzeros
Coefficient statistics:
  Matrix range    [4e-06, 1e+03]
  Objective range [1e+00, 1e+00]
  Bounds range    [1e+00, 1e+00]
  RHS range       [1e+00, 1e+03]
Found heuristic solution: objective 2450.7
Presolve removed 8046 rows and 983 columns
Presolve time: 0.01s
Presolved: 20 rows, 20 columns, 60 nonzeros
Variable types: 20 continuous, 0 integer (0 binary)

Root relaxation: objective 1.666081e+02, 13 iterations, 0.00 seconds

    Nodes    |    Current Node    |     Objective Bounds      |     Work
 Expl Unexpl |  Obj  Depth IntInf | Incumbent    BestBd   Gap | It/Node Time

*    0     0               0     166.6080563  166.60806  0.00%     -    0s

Explored 0 nodes (13 simplex iterations) in 0.01 seconds
Thread count was 8 (of 8 available processors)

Optimal solution found (tolerance 1.00e-04)
Best objective 1.666080563500e+02, best bound 1.666080563500e+02, gap 0.0%

Wrote requested result file 'H2\instance8\\Results8EC_Sol6.lp'

